0 0 0 0
0 1 0 0
0 2 0 0
0 3 0 0
0 4 0 4
0 5 0 5
0 6 0 6
0 7 0 8
0 8 1 8
0 9 2 5
0 10 0 6
0 11 0 11
0 12 0 11
0 13 0 8
0 14 0 10
0 15 0 12
0 16 0 14
0 17 2 5
0 18 0 17
0 19 0 6
0 20 0 10
0 21 0 15
0 22 0 15
0 23 0 18
0 24 1 15
0 25 1 15
0 26 0 25
0 27 0 17
0 28 0 30
0 29 1 25
0 30 0 25
0 31 0 33
